Route #1: 101 61 17 41 69 16 75 118 147 122 38 143
Route #2: 68 36 103 65 87 97 62 142 128 26 120 14
Route #3: 99 93 32 42 3 121 6 54 35 4 67 56
Route #4: 152 37 116 27 111 132 102 96 150 8 59 149
Route #5: 44 124 92 137 7 28 66 94 86 130 46 19
Route #6: 70 139 125 78 146 80 40 108 9 117 1 126
Route #7: 151 129 91 63 64 141 24 43 88 47 156 13
Route #8: 57 136 112 89 81 109 76 153 2 77 45 83
Route #9: 48 33 84 12 60 119 11 82 90 51 100 113
Route #10: 72 34 79 74 30 22 155 25 138 52 107 18
Route #11: 71 104 127 145 114 29 58 39 10 134 5 148
Route #12: 105 154 98 140 31 23 50 133 131 55 115 95
Route #13: 15 49 20 106 73 53 123 144 85 135 21 110
Cost 17783
